#Generated by Multiwfn
&GLOBAL
  PROJECT R_3
  PRINT_LEVEL medium
  RUN_TYPE MD
&END GLOBAL

&FORCE_EVAL
  METHOD Quickstep
  &SUBSYS
    &CELL
      A     24.00000000     0.00000000     0.00000000
      B     0.00000000     24.00000000     0.00000000
      C     0.00000000     0.00000000     24.00000000
      PERIODIC XYZ
    &END CELL
    &COORD
@include coord.xyz
    &END COORD
#   &VELOCITY #You can set initial atomic velocities in this section
#   &END VELOCITY
  &END SUBSYS

  &DFT
#   WFN_RESTART_FILE_NAME inputxtb-RESTART.wfn
