#Generated by Multiwfn
&GLOBAL
  PROJECT R_3
  PRINT_LEVEL medium
  RUN_TYPE MD
  &PRINT
    &EACH
      MD    20
    &END EACH
  &END PRINT
&END GLOBAL

&FORCE_EVAL
  METHOD Quickstep
  &SUBSYS
    &CELL
